(set-info :smt-lib-version 2.6)
(set-logic QF_UF)
(set-info :category "crafted")
(set-info :status unsat)
(declare-sort S1 0)
(declare-fun a () S1)
(declare-fun b () S1)
(declare-fun d () S1)
(declare-fun f (S1) S1)
(assert (let((t1 (f b))(t2 (f d)))(and (= b d)(= t1 d)(= t2 a) (not(= a b)) )))
(check-sat)
(exit)